12327
0 0 0 0 1 1 0 1 1 1 1 0 0 1 0 0 1 0 1 0 1 1 1 0 0 1 0 1 0 0
21 20 27 4 20 8 13 18 21 13 20 21 18 21 4 8 8 8 25 5 21 27 27 25 5 22 27 8 8 27 4 13 10 9 4 21 20 21 16 13 25 13 18 10 4 10 20 8 25 13 22 13 8 7 13 21 18 8 7 25 22 13 8 7 9 4 13 10 7 21 20 9 8 25 16 10 7 16 7 13 4 13 10 10 4 8 16 8 16 5 4 13 18 9 4 20 13 18 9 5 4 13 10 9 4 22 20 9 25 5 10 20 9 5 7 10 8 8 25 5 7 20 8 5 7 22 18 8 8 25 22 13 8 7 7 21 20 8 25 25 8 13 18 7 4 10 20 8 5 25